NAME : amz2265.119313_119313.tour
COMMENT : Cost = 119313_119313
COMMENT : Found by LKH-AMZ [Keld Helsgaun] Sun May 11 13:48:41 2025
COMMENT : TW viol.: 0 #: 0
TYPE : TOUR
DIMENSION : 166
TOUR_SECTION
14
13
91
136
64
35
131
142
138
70
128
95
87
32
164
24
12
56
146
151
156
127
50
62
154
102
96
1
69
83
117
143
98
47
11
28
90
130
108
85
157
25
65
52
110
74
132
100
46
48
144
73
148
124
60
129
76
20
112
40
121
149
54
120
84
126
134
17
5
81
93
99
37
88
33
4
15
97
7
59
19
21
133
57
34
77
31
79
150
29
135
16
107
106
147
51
145
53
153
63
115
158
141
30
18
92
67
78
104
89
44
23
27
39
113
155
160
66
159
86
94
80
165
41
116
161
61
55
119
75
68
42
10
152
6
49
166
36
140
101
123
38
109
72
58
9
71
103
125
139
114
82
122
105
22
3
8
26
163
45
111
2
137
162
118
43
-1
EOF
